AME : levi30_26
COMMENT : 30: 40x18 -city problem (levikoppenhol)
TYPE : TSP
DIMENSION : 30
EDGE_WEIGHT_TYPE : EUC_2D
NODE_COORD_SECTION
1 10 14
2 0 14
3 4 37
4 8 31
5 8 39
6 10 6
7 18 9
8 17 32
9 13 4
10 7 8
11 8 20
12 0 16
13 0 1
14 13 12
15 17 6
16 9 0
17 1 15
18 6 39
19 12 32
20 2 34
21 0 30
22 7 8
23 16 27
24 10 4
25 9 36
26 16 2
27 12 35
28 15 6
29 2 8
30 13 0
EOF